solution status: optimal solution found
objective value:                                24000
cpmy_3                                              1 	(obj:0)
cpmy_12                                             1 	(obj:0)
cpmy_13                                             1 	(obj:0)
cpmy_21                                             1 	(obj:0)
cpmy_24                                             1 	(obj:0)
cpmy_25                                             1 	(obj:0)
cpmy_30                                             1 	(obj:0)
cpmy_33                                             1 	(obj:0)
cpmy_38                                             1 	(obj:0)
cpmy_45                                             1 	(obj:0)
cpmy_48                                             1 	(obj:0)
uf_1                                                1 	(obj:0)
uf_2                                                1 	(obj:0)
uf_3                                                1 	(obj:0)
uf_4                                                1 	(obj:0)
uf_5                                                1 	(obj:0)
uf_6                                                1 	(obj:0)
uf_7                                                1 	(obj:0)
uf_8                                                1 	(obj:0)
uf_9                                                1 	(obj:0)
uf_10                                               1 	(obj:0)
uf_11                                               1 	(obj:0)
uf_12                                               1 	(obj:0)
uf_13                                               1 	(obj:0)
uf_14                                               1 	(obj:0)
uf_15                                               1 	(obj:0)
uf_16                                               1 	(obj:0)
uf_17                                               1 	(obj:0)
uf_18                                               1 	(obj:0)
uf_19                                               1 	(obj:0)
uf_20                                               1 	(obj:0)
uf_21                                               1 	(obj:0)
uf_22                                               1 	(obj:0)
uf_23                                               1 	(obj:0)
uf_24                                               1 	(obj:0)
uf_25                                               1 	(obj:0)
uf_27                                               1 	(obj:0)
uf_28                                               1 	(obj:0)
uf_31                                               1 	(obj:0)
uf_32                                               1 	(obj:0)
uf_35                                               1 	(obj:0)
uf_42                                               1 	(obj:0)
uf_43                                               1 	(obj:0)
uf_45                                               1 	(obj:0)
uf_49                                               1 	(obj:0)
uf_52                                               1 	(obj:0)
uf_53                                               1 	(obj:0)
uf_57                                               1 	(obj:0)
uf_60                                               1 	(obj:0)
uf_61                                               1 	(obj:0)
uf_62                                               1 	(obj:0)
uf_65                                               1 	(obj:0)
uf_68                                               1 	(obj:0)
uf_69                                               1 	(obj:0)
uf_70                                               1 	(obj:0)
uf_73                                               1 	(obj:0)
uf_76                                               1 	(obj:0)
uf_77                                               1 	(obj:0)
uf_78                                               1 	(obj:0)
uf_81                                               1 	(obj:0)
uf_82                                               1 	(obj:0)
uf_83                                               1 	(obj:0)
uf_84                                               1 	(obj:0)
uf_85                                               1 	(obj:0)
uf_86                                               1 	(obj:0)
uf_89                                               1 	(obj:0)
uf_90                                               1 	(obj:0)
uf_91                                               1 	(obj:0)
uf_92                                               1 	(obj:0)
uf_93                                               1 	(obj:0)
uf_94                                               1 	(obj:0)
dr_2                                                1 	(obj:0)
dr_5                                                1 	(obj:0)
dr_12                                               1 	(obj:0)
dr_18                                               1 	(obj:0)
dr_23                                               1 	(obj:0)
dr_25                                               1 	(obj:0)
dr_28                                               1 	(obj:0)
dr_41                                               1 	(obj:0)
dr_42                                               1 	(obj:0)
dr_47                                               1 	(obj:0)
dr_48                                               1 	(obj:0)
ud_3                                               12 	(obj:1000)
ud_5                                               12 	(obj:1000)
